NAME : portcgen-24-5
COMMENT : portcgen N=24, seed=5
TYPE : TSP
DIMENSION : 24
EDGE_WEIGHT_TYPE : EUC_2D
NODE_COORD_SECTION
1 148785 16984
2 63118 -16168
3 30079 45498
4 -220115 285926
5 -233766 30769
6 18791 -36636
7 138924 177419
8 188571 201486
9 33355 -217874
10 208918 9257
11 22223 -148748
12 118311 183643
13 -97825 339501
14 -47739 164791
15 -69224 75433
16 388642 257463
17 -206286 186021
18 -86220 340639
19 288865 40300
20 71348 63159
21 -78756 167124
22 43262 -21457
23 95196 247195
24 -166274 -71812
